Generated by VASPKIT code               
   1.00000000000000     
     3.4467234802089486    0.0000000000000000    0.0000000000000000
     0.0000000000000002    3.4467234802089486    0.0000000000000000
     0.0000000000000012    0.0000000000000012   20.0000000000000036
   C 
     4
Direct
  0.5000000000000000  0.1992401131146835  0.0500000007450581
  0.1992401131146835  0.5000000000000000  0.0500000007450581
  0.8007598868853165  0.5000000000000000  0.0500000007450581
  0.5000000000000000  0.8007598868853165  0.0500000007450581


